Solving original (integer) problem with strategy gdp.binary_multiplication...
--- Job model.gms Start 02/18/26 23:57:37 52.2.0 d8e408be LEX-LEG x86 64bit/Linux
--- Applying:
    /package/gams/52.2/gmsprmun.txt
--- GAMS Parameters defined
    Input /local/scratch/a/sgusev/repos/k_means/data/gams_gurobi_gdp.binary_multiplication/no_mode/2026-02-18_23-57-36/original/model.gms
    Output /local/scratch/a/sgusev/repos/k_means/data/gams_gurobi_gdp.binary_multiplication/no_mode/2026-02-18_23-57-36/original/output.lst
    ScrDir /local/scratch/a/sgusev/repos/k_means/data/gams_gurobi_gdp.binary_multiplication/no_mode/2026-02-18_23-57-36/original/225a/
    SysDir /package/gams/52.2/
    CurDir /local/scratch/a/sgusev/repos/k_means/data/gams_gurobi_gdp.binary_multiplication/no_mode/2026-02-18_23-57-36/original/
    LogOption 3
    AppendLog 1
Licensee: David Bernal / SECQUOIA Research Group         G251008+0003Ac-GEN
          Purdue University, Davidson School of Chemical EngineeringDCE4838
          225a/gamslice.dat
          5a82958a-fbca-4a23
          node:66820903 mem:995 cores:48 ipport:50603 v:2                  
          Evaluation license: Not for commercial or production use
          The time-limited license stops working on : Jun 30, 2027
System information: 48 physical cores and 995 Gb physical memory detected
GAMS 52.2.0   Copyright (C) 1987-2025 GAMS Development. All rights reserved
--- Starting compilation
--- model.gms(231) 2 Mb
--- $echo File /local/scratch/a/sgusev/repos/k_means/data/gams_gurobi_gdp.binary_multiplication/no_mode/2026-02-18_23-57-36/original/gurobi.opt
--- model.gms(414) 2 Mb
--- Starting execution: elapsed 0:00:00.005
--- model.gms(240) 3 Mb
--- Generating MINLP model GAMS_MODEL
--- model.gms(244) 5 Mb
---   55 rows  62 columns  252 non-zeroes
---   585 nl-code  195 nl-non-zeroes
---   39 discrete-columns
--- Range statistics (absolute non-zero finite values)
--- RHS       [min, max] : [ 1.000E+00, 1.000E+00] - Zero values observed as well
--- Bound     [min, max] : [ 1.000E+00, 7.800E+01] - Zero values observed as well
--- Matrix    [min, max] : [ 2.742E-01, 2.088E+00] - Zero values observed as well
--- model.gms(244) 3 Mb
--- Executing GUROBI (Solvelink=5): elapsed 0:00:00.008
Reading parameter(s) from "/local/scratch/a/sgusev/repos/k_means/data/gams_gurobi_gdp.binary_multiplication/no_mode/2026-02-18_23-57-36/original/gurobi.opt"
>>  NonConvex 2
>>  Threads 1
>>  MIPGap 1e-06
>>  MIPGapAbs 1e-10
>>  FeasibilityTol 1e-06
>>  OptimalityTol 1e-06
>>  IntFeasTol 1e-05
Finished reading from "/local/scratch/a/sgusev/repos/k_means/data/gams_gurobi_gdp.binary_multiplication/no_mode/2026-02-18_23-57-36/original/gurobi.opt"

... GRB_LICENSE_FILE = /local/scratch/a/sgusev/gurobi.lic

    Gurobi           52.2.0 d8e408be Dec 8, 2025           LEG x86 64bit/Linux    

... GAMS/Gurobi Link license.
... GMO Q Extraction (ThreePass): 0.00s

    Gurobi Optimizer version 13.0.0 build v13.0.0rc1 (linux64 - "Oracle Linux Server 9.7")
    
    CPU model: AMD EPYC 7643 48-Core Processor, instruction set [SSE2|AVX|AVX2]
    Thread count: 48 physical cores, 96 logical processors, using up to 1 threads
    
    Non-default parameters:
    TimeLimit  300
    MIPGap  1e-06
    LogToConsole  0
    NonConvex  2
    Threads  1
    
    Optimize a model with 54 rows, 100 columns and 82 nonzeros (Min)
    Model fingerprint: 0x6d5f77a5
    Model has 13 linear objective coefficients
    Model has 39 general nonlinear constraints (156 nonlinear terms)
    Variable types: 61 continuous, 39 integer (0 binary)
    Coefficient statistics:
      Matrix range     [1e+00, 1e+00]
      Objective range  [1e+00, 1e+00]
      Bounds range     [1e+00, 8e+01]
      RHS range        [1e+00, 1e+00]
      NLCon coe range  [9e-02, 1e+00]
    Presolve model has 39 nlconstr
    Added 273 variables to disaggregate expressions
    Presolve removed 39 rows and 0 columns
    Presolve time: 0.00s
    Presolved: 678 rows, 413 columns, 1564 nonzeros
    Presolved model has 117 bilinear constraint(s)
    
    Solving non-convex MIQCP to global optimality
    
    Variable types: 374 continuous, 39 integer (39 binary)
    Found heuristic solution: objective 13.8862528
    
    Root relaxation: objective 0.000000e+00, 105 iterations, 0.00 seconds (0.00 work units)
    
        Nodes    |    Current Node    |     Objective Bounds      |     Work
     Expl Unexpl |  Obj  Depth IntInf | Incumbent    BestBd   Gap | It/Node Time
    
         0     0    0.00000    0   91   13.88625    0.00000   100%     -    0s
    H    0     0                      13.8862131    0.00000   100%     -    0s
         0     0    0.00000    0  113   13.88621    0.00000   100%     -    0s
         0     0    0.00000    0  127   13.88621    0.00000   100%     -    0s
         0     0    0.00000    0  131   13.88621    0.00000   100%     -    0s
         0     0    0.00000    0  131   13.88621    0.00000   100%     -    0s
         0     0    0.00000    0  121   13.88621    0.00000   100%     -    0s
         0     0    0.00000    0  132   13.88621    0.00000   100%     -    0s
         0     0    0.00000    0  132   13.88621    0.00000   100%     -    0s
         0     0    0.00000    0  130   13.88621    0.00000   100%     -    0s
    H    0     0                       9.6627946    0.00000   100%     -    0s
    H    0     0                       9.6298764    0.00000   100%     -    0s
    H    0     0                       8.4408774    0.00000   100%     -    0s
         0     2    0.00000    0  130    8.44088    0.00000   100%     -    0s
    H    2     2                       7.0150479    0.00000   100%  17.0    0s
    H    2     2                       7.0150479    0.00000   100%  17.0    0s
    H    8     8                       6.9233273    0.00000   100%  26.4    0s
    H    9     9                       6.8227499    0.00000   100%  26.4    0s
    H  110    86                       6.7733428    0.00000   100%  12.6    0s
    H  685   438                       6.7443975    0.00000   100%  19.1    1s
    H  685   416                       6.7443953    0.00000   100%  19.1    1s
    H  835   460                       6.7016220    0.00000   100%  20.8    1s
    H  842   446                       6.5996389    0.00000   100%  20.7    1s
    H  850   405                       5.7334195    0.00000   100%  20.6    1s
    H  856   388                       5.7334195    0.00000   100%  20.7    1s
    H 2295   684                       5.7269674    0.06527  98.9%  25.3    3s
    H 4617  1246                       5.7269674    1.29622  77.4%  24.5    5s
     10782  1694    4.33211   22  123    5.72697    3.01236  47.4%  23.9   10s
     16962   906    5.41154   37   42    5.72697    4.94030  13.7%  22.2   15s
     24405  1634    5.53017   39   78    5.72697    5.38693  5.94%  18.1   20s
     32726  2061    5.69194   54   39    5.72697    5.59436  2.32%  15.2   25s
     41716  3477     cutoff   72         5.72697    5.64307  1.47%  13.0   30s
     50724  5433    5.69113   68   52    5.72697    5.65649  1.23%  11.6   35s
     60040  6515    5.71993   71   39    5.72697    5.66723  1.04%  10.5   40s
     68176  7259     cutoff   58         5.72697    5.67400  0.92%  10.0   45s
     77253  7804     cutoff   65         5.72697    5.68247  0.78%   9.4   50s
    H83371  8028                       5.7269601    5.68562  0.72%   9.1   53s
     86111  7964     cutoff   54         5.72696    5.68750  0.69%   8.9   55s
     95064  7827    5.71702   68   39    5.72696    5.69345  0.59%   8.5   60s
     104009  7596     cutoff   76         5.72696    5.69952  0.48%   8.2   65s
     112753  7436     cutoff   66         5.72696    5.70573  0.37%   8.0   70s
     121995  7734    5.71373   57   65    5.72696    5.71021  0.29%   7.7   75s
     131112  8129     cutoff   82         5.72696    5.71304  0.24%   7.5   80s
     140437  7948    5.71715   64   65    5.72696    5.71602  0.19%   7.3   85s
     149567  7944    5.72690   75   39    5.72696    5.71836  0.15%   7.1   90s
     159152  8033    5.72579   81   52    5.72696    5.72060  0.11%   7.0   95s
     168319  8496    5.72676   85   65    5.72696    5.72166  0.09%   6.8  100s
     177039  8620    5.72688   83   65    5.72696    5.72231  0.08%   6.8  105s
     185424  8685     cutoff   80         5.72696    5.72287  0.07%   6.7  110s
     193872  8261    5.72483   76   65    5.72696    5.72334  0.06%   6.7  115s
     203318  7435    5.72666   77   13    5.72696    5.72388  0.05%   6.6  120s
     212603  6364    5.72644   77   39    5.72696    5.72451  0.04%   6.5  125s
     222540  6407     cutoff   84         5.72696    5.72501  0.03%   6.4  130s
     232278  6363    5.72676   87   39    5.72696    5.72527  0.03%   6.3  135s
     242461  5994     cutoff   88         5.72696    5.72550  0.03%   6.2  140s
     252243  5986    5.72618   84   65    5.72696    5.72571  0.02%   6.1  145s
     262244  5843     cutoff   83         5.72696    5.72592  0.02%   6.0  150s
     271998  5385    5.72617   84   78    5.72696    5.72615  0.01%   6.0  155s
     281655  4452    5.72687   89   65    5.72696    5.72652  0.01%   5.9  160s
     291267  4878    5.72691   92   52    5.72696    5.72671  0.00%   5.8  165s
     301073  5416    5.72696   94   65    5.72696    5.72676  0.00%   5.7  170s
     310604  5285    5.72689   92   52    5.72696    5.72681  0.00%   5.7  175s
     320434  5059    5.72685   95   52    5.72696    5.72684  0.00%   5.6  180s
     330031  5252     cutoff  100         5.72696    5.72687  0.00%   5.6  185s
     340075  5422    5.72694  106   51    5.72696    5.72688  0.00%   5.6  190s
     349695  5366     cutoff  108         5.72696    5.72689  0.00%   5.5  195s
     359715  4922     cutoff  100         5.72696    5.72690  0.00%   5.5  200s
     369501  4390     cutoff  103         5.72696    5.72691  0.00%   5.5  205s
     379540  3459     cutoff   98         5.72696    5.72693  0.00%   5.4  210s
     389207  1552    5.72695  104   38    5.72696    5.72695  0.00%   5.4  215s
    
    Cutting planes:
      Gomory: 2
      Implied bound: 6
      MIR: 3
      Flow cover: 33
      RLT: 6
      Relax-and-lift: 1
    
    Explored 390502 nodes (2108866 simplex iterations) in 215.66 seconds (148.53 work units)
    Thread count was 1 (of 96 available processors)
    
    Solution count 10: 5.72696 5.72697 5.73342 ... 6.92333
    
    Optimal solution found (tolerance 1.00e-06)
    Best objective 5.726960143502e+00, best bound 5.726954418539e+00, gap 0.0001%
    
    User-callback calls 390525, time in user-callback 0.02 sec

... Solving fixed model...

    Gurobi Optimizer version 13.0.0 build v13.0.0rc1 (linux64 - "Oracle Linux Server 9.7")
    
    CPU model: AMD EPYC 7643 48-Core Processor, instruction set [SSE2|AVX|AVX2]
    Thread count: 48 physical cores, 96 logical processors, using up to 1 threads
    
    Non-default parameters:
    TimeLimit  300
    MIPGap  1e-06
    LogToConsole  0
    NonConvex  2
    Threads  1
    
    Optimize a model with 54 rows, 100 columns and 82 nonzeros (Min)
    Model fingerprint: 0x739d5bd3
    Model has 13 linear objective coefficients
    Coefficient statistics:
      Matrix range     [1e+00, 1e+00]
      Objective range  [1e+00, 1e+00]
      Bounds range     [4e-02, 1e+00]
      RHS range        [1e+00, 1e+00]
    Presolve removed 54 rows and 100 columns
    Presolve time: 0.00s
    Presolve: All rows and columns removed
    Iteration    Objective       Primal Inf.    Dual Inf.      Time
           0    5.7269601e+00   0.000000e+00   0.000000e+00      0s
    
    Solved in 0 iterations and 0.00 seconds (0.00 work units)
    Optimal objective  5.726960144e+00
    
    User-callback calls 0, time in user-callback 0.00 sec

--- Reading solution for model GAMS_MODEL
***
*** Solver did not provide marginals for model GAMS_MODEL
***
--- Executing after solve: elapsed 0:03:35.703
--- model.gms(247) 3 Mb
--- model.gms(414) 5 Mb
--- Putfile results /local/scratch/a/sgusev/repos/k_means/data/gams_gurobi_gdp.binary_multiplication/no_mode/2026-02-18_23-57-36/original/results.dat
--- Putfile statresults /local/scratch/a/sgusev/repos/k_means/data/gams_gurobi_gdp.binary_multiplication/no_mode/2026-02-18_23-57-36/original/resultsstat.dat
*** Status: Normal completion
--- Job model.gms Stop 02/19/26 00:01:12 elapsed 0:03:35.703
Original problem solved. Time taken: 216.16361618041992 seconds
Original objective value: 5.726960143502171
